sat
(:added-eqs                       96979
 :arith-eq-adapter                1601
 :arith-bound-propagations-lp     1880
 :arith-branch                    17
 :arith-conflicts                 4741
 :arith-cube-calls                5
 :arith-diseq                     8570
 :arith-fixed-eqs                 9391
 :arith-gcd-calls                 750
 :arith-gomory-cuts               4
 :arith-grobner-calls             746
 :arith-grobner-conflicts         264
 :arith-horner-calls              213
 :arith-horner-conflicts          2
 :arith-horner-cross-nested-forms 38865
 :arith-lower                     35797
 :arith-make-feasible             22150
 :arith-max-columns               3161
 :arith-max-rows                  1369
 :arith-nla-add-bounds            330
 :arith-nla-lemmas                3033
 :arith-nla-propagate-bounds      1240
 :arith-nla-propagate-eq          37094
 :arith-nra-calls                 104
 :arith-offset-eqs                5332
 :arith-patches                   750
 :arith-patches-success           731
 :arith-upper                     65072
 :binary-propagations             129162
 :cnf-encoding-aux-vars           22
 :conflicts                       848
 :decisions                       184376
 :del-clause                      3935
 :elim-unconstrained              97
 :final-checks                    1646
 :max-memory                      47.31
 :memory                          20.26
 :minimized-lits                  550
 :mk-bool-var                     13493
 :mk-clause                       7554
 :mk-clause-binary                41940
 :nlsat-conflicts                 11651
 :nlsat-decisions                 1369
 :nlsat-propagations              894782
 :nlsat-stages                    533971
 :num-allocs                      32881513776.00
 :num-checks                      2
 :propagations                    192652
 :restarts                        7
 :rlimit-count                    15518242
 :solve-eqs-elim-vars             147
 :solve-eqs-steps                 2231
 :time                            9.65
 :total-time                      9.67)
